min: T;

T > T1;
T > T2;
T > T3;
T > T4;

d1 + d2 + d3 + d4 = 200;
d43 + d42 = d4;

tk12 = 0*x12 + 3*d2 + 3*d3 + 3*d4;
tk23 = 0*x23 + 3*d3 + 3*d43;
tk24 = 0*x24 + 3*d42;
tk34 = 0*x34 + 3*d43;

T1 > 10*d1;
T1 > tk12;

T2 > tk12 + 4*d2;
T2 > tk12 + tk24 - 2000000 + 2000000*bg24;
T2 > tk12 + tk23 - 2000000*bg24;

T3 > tk12 + tk23 + 10*d3;
T3 > tk12 + tk23 + tk34;

T4 > tk12 + tk23 + tk34 - 2000000*bg24;
T4 > tk12 + tk24 - 2000000 + 2000000*bg24;
T4 > tk12 + tk24 + 10*d4 - 2000000*bg24;
T4 > tk12 + tk23 + tk34 + 10*d43 - 2000000*bg24;
T4 > tk12 + tk23 + tk34 + 10*d4 - 2000000 + 2000000*bg24;
T4 > tk12 + tk24 + 10*d42 - 2000000 + 2000000*bg24;


x12 < 1;
200*x12 > d2 + d3 + d4;
x23 < 1;
200*x23 > d3 + d43;
x24 < 1;
200*x24 > d42;
x34 < 1;
200*x34 > d43;

bg24 < 1;

int d1, d2, d3, d42, d43;
int x12, x23, x24, x34;
int bg24;
